param set_len = 24;
param target = 866892;
param values := [0] 55519 [1] 1295 [2] 120248 [3] 93470 [4] 74547 [5] 72852 [6] 91037 [7] 12536 [8] 88726 [9] 42054 [10] 8328 [11] 129169 [12] 58593 [13] 67857 [14] 4713 [15] 80429 [16] 128323 [17] 122990 [18] 70274 [19] 51324 [20] 29398 [21] 69475 [22] 40848 [23] 100507 ;
